
  22    4
  10   10   10   10

   0   0   0   0   0   6 2 3 4 6 7 8 
   9  10  10  10  10   4 15 14 10 5 
   7  10  10  10  10   4 14 13 12 10 
   4  10  10  10  10   2 10 9 
   4  10  10  10  10   2 11 9 
   9  10  10  10  10   2 21 9 
   4  10  10  10  10   4 21 20 13 12 
   9  10  10  10  10   5 21 20 19 17 13 
   1  10  10  10  10   3 20 13 12 
   8  10  10  10  10   6 21 20 19 18 17 16 
   8  10  10  10  10   4 20 19 17 13 
   4  10  10  10  10   4 19 18 17 16 
   3  10  10  10  10   2 18 16 
   4  10  10  10  10   2 17 16 
   2  10  10  10  10   1 16 
   2  10  10  10  10   1 22
   4  10  10  10  10   1 22
   1  10  10  10  10   1 22
   8  10  10  10  10   1 22
   2  10  10  10  10   1 22
   8  10  10  10  10   1 22
   0   0   0   0   0   0 
